\Problem name: compact

Minimize
OBJROW: C
Subject To
ord(0,1):  x(0,0) - x(0,1) >= 9
ord(0,2):  - x(0,0) + x(0,3) >= 3
ord(0,3):  x(0,2) - x(0,3) >= 5
ord(1,1):  - x(1,0) + x(1,2) >= 2
ord(1,2):  x(1,1) - x(1,2) >= 1
ord(1,3):  - x(1,1) + x(1,3) >= 1
ord(2,1):  - x(2,1) + x(2,2) >= 10
ord(2,2):  x(2,0) - x(2,2) >= 10
ord(2,3):  - x(2,0) + x(2,3) >= 10
ord(3,1):  - x(3,1) + x(3,2) >= 1
ord(3,2):  - x(3,2) + x(3,3) >= 1
ord(3,3):  x(3,0) - x(3,3) >= 1
triangle2(0,1,0):  y(0,1,0) + y(1,0,0) = 1
triangle2(0,1,1):  y(0,1,1) + y(1,0,1) = 1
triangle2(0,1,2):  y(0,1,2) + y(1,0,2) = 1
triangle2(0,1,3):  y(0,1,3) + y(1,0,3) = 1
triangle2(0,2,0):  y(0,2,0) + y(2,0,0) = 1
triangle2(0,2,1):  y(0,2,1) + y(2,0,1) = 1
triangle2(0,2,2):  y(0,2,2) + y(2,0,2) = 1
triangle2(0,2,3):  y(0,2,3) + y(2,0,3) = 1
triangle2(0,3,0):  y(0,3,0) + y(3,0,0) = 1
triangle2(0,3,1):  y(0,3,1) + y(3,0,1) = 1
triangle2(0,3,2):  y(0,3,2) + y(3,0,2) = 1
triangle2(0,3,3):  y(0,3,3) + y(3,0,3) = 1
triangle2(1,2,0):  y(1,2,0) + y(2,1,0) = 1
triangle2(1,2,1):  y(1,2,1) + y(2,1,1) = 1
triangle2(1,2,2):  y(1,2,2) + y(2,1,2) = 1
triangle2(1,2,3):  y(1,2,3) + y(2,1,3) = 1
triangle2(1,3,0):  y(1,3,0) + y(3,1,0) = 1
triangle2(1,3,1):  y(1,3,1) + y(3,1,1) = 1
triangle2(1,3,2):  y(1,3,2) + y(3,1,2) = 1
triangle2(1,3,3):  y(1,3,3) + y(3,1,3) = 1
triangle2(2,3,0):  y(2,3,0) + y(3,2,0) = 1
triangle2(2,3,1):  y(2,3,1) + y(3,2,1) = 1
triangle2(2,3,2):  y(2,3,2) + y(3,2,2) = 1
triangle2(2,3,3):  y(2,3,3) + y(3,2,3) = 1
MCLinV(0,1,0):  x(0,0) - v(0,1,0) - x(1,0) = 2
MCLinV(1,0,0):  - x(0,0) - v(1,0,0) + x(1,0) = 3
MCLin1(0,1,0):  u(0,1,0) >= -0
MCLin2(0,1,0):  -55 y(1,0,0) - u(0,1,0) <= -0
MCLin3(0,1,0):  58 y(1,0,0) + v(0,1,0) - u(0,1,0) <= 58
MCLin4(0,1,0):  58 y(1,0,0) - u(0,1,0) >= -0
MCLin5(0,1,0):  -55 y(1,0,0) + v(0,1,0) - u(0,1,0) >= -55
MCLin6(1,0,0):  u(1,0,0) >= -0
MCLin7(1,0,0):  -63 y(0,1,0) - u(1,0,0) <= -0
MCLin8(1,0,0):  50 y(0,1,0) + v(1,0,0) - u(1,0,0) <= 50
MCLin9(1,0,0):  50 y(0,1,0) - u(1,0,0) >= -0
MCLin10(1,0,0):  -63 y(0,1,0) + v(1,0,0) - u(1,0,0) >= -63
MCLinV(0,1,1):  x(0,1) - v(0,1,1) - x(1,1) = 1
MCLinV(1,0,1):  - x(0,1) - v(1,0,1) + x(1,1) = 9
MCLin1(0,1,1):  u(0,1,1) >= -0
MCLin2(0,1,1):  -66 y(1,0,1) - u(0,1,1) <= -0
MCLin3(0,1,1):  47 y(1,0,1) + v(0,1,1) - u(0,1,1) <= 47
MCLin4(0,1,1):  47 y(1,0,1) - u(0,1,1) >= -0
MCLin5(0,1,1):  -66 y(1,0,1) + v(0,1,1) - u(0,1,1) >= -66
MCLin6(1,0,1):  u(1,0,1) >= -0
MCLin7(1,0,1):  -57 y(0,1,1) - u(1,0,1) <= -0
MCLin8(1,0,1):  56 y(0,1,1) + v(1,0,1) - u(1,0,1) <= 56
MCLin9(1,0,1):  56 y(0,1,1) - u(1,0,1) >= -0
MCLin10(1,0,1):  -57 y(0,1,1) + v(1,0,1) - u(1,0,1) >= -57
MCLinV(0,1,2):  x(0,2) - v(0,1,2) - x(1,2) = 1
MCLinV(1,0,2):  - x(0,2) - v(1,0,2) + x(1,2) = 3
MCLin1(0,1,2):  u(0,1,2) >= -0
MCLin2(0,1,2):  -48 y(1,0,2) - u(0,1,2) <= -0
MCLin3(0,1,2):  65 y(1,0,2) + v(0,1,2) - u(0,1,2) <= 65
MCLin4(0,1,2):  65 y(1,0,2) - u(0,1,2) >= -0
MCLin5(0,1,2):  -48 y(1,0,2) + v(0,1,2) - u(0,1,2) >= -48
MCLin6(1,0,2):  u(1,0,2) >= -0
MCLin7(1,0,2):  -69 y(0,1,2) - u(1,0,2) <= -0
MCLin8(1,0,2):  44 y(0,1,2) + v(1,0,2) - u(1,0,2) <= 44
MCLin9(1,0,2):  44 y(0,1,2) - u(1,0,2) >= -0
MCLin10(1,0,2):  -69 y(0,1,2) + v(1,0,2) - u(1,0,2) >= -69
MCLinV(0,1,3):  x(0,3) - v(0,1,3) - x(1,3) = 5
MCLinV(1,0,3):  - x(0,3) - v(1,0,3) + x(1,3) = 5
MCLin1(0,1,3):  u(0,1,3) >= -0
MCLin2(0,1,3):  -59 y(1,0,3) - u(0,1,3) <= -0
MCLin3(0,1,3):  54 y(1,0,3) + v(0,1,3) - u(0,1,3) <= 54
MCLin4(0,1,3):  54 y(1,0,3) - u(0,1,3) >= -0
MCLin5(0,1,3):  -59 y(1,0,3) + v(0,1,3) - u(0,1,3) >= -59
MCLin6(1,0,3):  u(1,0,3) >= -0
MCLin7(1,0,3):  -64 y(0,1,3) - u(1,0,3) <= -0
MCLin8(1,0,3):  49 y(0,1,3) + v(1,0,3) - u(1,0,3) <= 49
MCLin9(1,0,3):  49 y(0,1,3) - u(1,0,3) >= -0
MCLin10(1,0,3):  -64 y(0,1,3) + v(1,0,3) - u(1,0,3) >= -64
MCLinV(0,2,0):  x(0,0) - v(0,2,0) - x(2,0) = 10
MCLinV(2,0,0):  - x(0,0) - v(2,0,0) + x(2,0) = 3
MCLin1(0,2,0):  u(0,2,0) >= -0
MCLin2(0,2,0):  -57 y(2,0,0) - u(0,2,0) <= -0
MCLin3(0,2,0):  30 y(2,0,0) + v(0,2,0) - u(0,2,0) <= 30
MCLin4(0,2,0):  30 y(2,0,0) - u(0,2,0) >= -0
MCLin5(0,2,0):  -57 y(2,0,0) + v(0,2,0) - u(0,2,0) >= -57
MCLin6(2,0,0):  u(2,0,0) >= -0
MCLin7(2,0,0):  -43 y(0,2,0) - u(2,0,0) <= -0
MCLin8(2,0,0):  44 y(0,2,0) + v(2,0,0) - u(2,0,0) <= 44
MCLin9(2,0,0):  44 y(0,2,0) - u(2,0,0) >= -0
MCLin10(2,0,0):  -43 y(0,2,0) + v(2,0,0) - u(2,0,0) >= -43
MCLinV(0,2,1):  x(0,1) - v(0,2,1) - x(2,1) = 10
MCLinV(2,0,1):  - x(0,1) - v(2,0,1) + x(2,1) = 9
MCLin1(0,2,1):  u(0,2,1) >= -0
MCLin2(0,2,1):  -46 y(2,0,1) - u(0,2,1) <= -0
MCLin3(0,2,1):  41 y(2,0,1) + v(0,2,1) - u(0,2,1) <= 41
MCLin4(0,2,1):  41 y(2,0,1) - u(0,2,1) >= -0
MCLin5(0,2,1):  -46 y(2,0,1) + v(0,2,1) - u(0,2,1) >= -46
MCLin6(2,0,1):  u(2,0,1) >= -0
MCLin7(2,0,1):  -60 y(0,2,1) - u(2,0,1) <= -0
MCLin8(2,0,1):  27 y(0,2,1) + v(2,0,1) - u(2,0,1) <= 27
MCLin9(2,0,1):  27 y(0,2,1) - u(2,0,1) >= -0
MCLin10(2,0,1):  -60 y(0,2,1) + v(2,0,1) - u(2,0,1) >= -60
MCLinV(0,2,2):  x(0,2) - v(0,2,2) - x(2,2) = 10
MCLinV(2,0,2):  - x(0,2) - v(2,0,2) + x(2,2) = 3
MCLin1(0,2,2):  u(0,2,2) >= -0
MCLin2(0,2,2):  -39 y(2,0,2) - u(0,2,2) <= -0
MCLin3(0,2,2):  48 y(2,0,2) + v(0,2,2) - u(0,2,2) <= 48
MCLin4(0,2,2):  48 y(2,0,2) - u(0,2,2) >= -0
MCLin5(0,2,2):  -39 y(2,0,2) + v(0,2,2) - u(0,2,2) >= -39
MCLin6(2,0,2):  u(2,0,2) >= -0
MCLin7(2,0,2):  -61 y(0,2,2) - u(2,0,2) <= -0
MCLin8(2,0,2):  26 y(0,2,2) + v(2,0,2) - u(2,0,2) <= 26
MCLin9(2,0,2):  26 y(0,2,2) - u(2,0,2) >= -0
MCLin10(2,0,2):  -61 y(0,2,2) + v(2,0,2) - u(2,0,2) >= -61
MCLinV(0,2,3):  x(0,3) - v(0,2,3) - x(2,3) = 5
MCLinV(2,0,3):  - x(0,3) - v(2,0,3) + x(2,3) = 5
MCLin1(0,2,3):  u(0,2,3) >= -0
MCLin2(0,2,3):  -59 y(2,0,3) - u(0,2,3) <= -0
MCLin3(0,2,3):  28 y(2,0,3) + v(0,2,3) - u(0,2,3) <= 28
MCLin4(0,2,3):  28 y(2,0,3) - u(0,2,3) >= -0
MCLin5(0,2,3):  -59 y(2,0,3) + v(0,2,3) - u(0,2,3) >= -59
MCLin6(2,0,3):  u(2,0,3) >= -0
MCLin7(2,0,3):  -38 y(0,2,3) - u(2,0,3) <= -0
MCLin8(2,0,3):  49 y(0,2,3) + v(2,0,3) - u(2,0,3) <= 49
MCLin9(2,0,3):  49 y(0,2,3) - u(2,0,3) >= -0
MCLin10(2,0,3):  -38 y(0,2,3) + v(2,0,3) - u(2,0,3) >= -38
MCLinV(0,3,0):  x(0,0) - v(0,3,0) - x(3,0) = 4
MCLinV(3,0,0):  - x(0,0) - v(3,0,0) + x(3,0) = 3
MCLin1(0,3,0):  u(0,3,0) >= -0
MCLin2(0,3,0):  -62 y(3,0,0) - u(0,3,0) <= -0
MCLin3(0,3,0):  53 y(3,0,0) + v(0,3,0) - u(0,3,0) <= 53
MCLin4(0,3,0):  53 y(3,0,0) - u(0,3,0) >= -0
MCLin5(0,3,0):  -62 y(3,0,0) + v(0,3,0) - u(0,3,0) >= -62
MCLin6(3,0,0):  u(3,0,0) >= -0
MCLin7(3,0,0):  -60 y(0,3,0) - u(3,0,0) <= -0
MCLin8(3,0,0):  55 y(0,3,0) + v(3,0,0) - u(3,0,0) <= 55
MCLin9(3,0,0):  55 y(0,3,0) - u(3,0,0) >= -0
MCLin10(3,0,0):  -60 y(0,3,0) + v(3,0,0) - u(3,0,0) >= -60
MCLinV(0,3,1):  x(0,1) - v(0,3,1) - x(3,1) = 1
MCLinV(3,0,1):  - x(0,1) - v(3,0,1) + x(3,1) = 9
MCLin1(0,3,1):  u(0,3,1) >= -0
MCLin2(0,3,1):  -65 y(3,0,1) - u(0,3,1) <= -0
MCLin3(0,3,1):  50 y(3,0,1) + v(0,3,1) - u(0,3,1) <= 50
MCLin4(0,3,1):  50 y(3,0,1) - u(0,3,1) >= -0
MCLin5(0,3,1):  -65 y(3,0,1) + v(0,3,1) - u(0,3,1) >= -65
MCLin6(3,0,1):  u(3,0,1) >= -0
MCLin7(3,0,1):  -60 y(0,3,1) - u(3,0,1) <= -0
MCLin8(3,0,1):  55 y(0,3,1) + v(3,0,1) - u(3,0,1) <= 55
MCLin9(3,0,1):  55 y(0,3,1) - u(3,0,1) >= -0
MCLin10(3,0,1):  -60 y(0,3,1) + v(3,0,1) - u(3,0,1) >= -60
MCLinV(0,3,2):  x(0,2) - v(0,3,2) - x(3,2) = 1
MCLinV(3,0,2):  - x(0,2) - v(3,0,2) + x(3,2) = 3
MCLin1(0,3,2):  u(0,3,2) >= -0
MCLin2(0,3,2):  -49 y(3,0,2) - u(0,3,2) <= -0
MCLin3(0,3,2):  66 y(3,0,2) + v(0,3,2) - u(0,3,2) <= 66
MCLin4(0,3,2):  66 y(3,0,2) - u(0,3,2) >= -0
MCLin5(0,3,2):  -49 y(3,0,2) + v(0,3,2) - u(0,3,2) >= -49
MCLin6(3,0,2):  u(3,0,2) >= -0
MCLin7(3,0,2):  -70 y(0,3,2) - u(3,0,2) <= -0
MCLin8(3,0,2):  45 y(0,3,2) + v(3,0,2) - u(3,0,2) <= 45
MCLin9(3,0,2):  45 y(0,3,2) - u(3,0,2) >= -0
MCLin10(3,0,2):  -70 y(0,3,2) + v(3,0,2) - u(3,0,2) >= -70
MCLinV(0,3,3):  x(0,3) - v(0,3,3) - x(3,3) = 1
MCLinV(3,0,3):  - x(0,3) - v(3,0,3) + x(3,3) = 5
MCLin1(0,3,3):  u(0,3,3) >= -0
MCLin2(0,3,3):  -55 y(3,0,3) - u(0,3,3) <= -0
MCLin3(0,3,3):  60 y(3,0,3) + v(0,3,3) - u(0,3,3) <= 60
MCLin4(0,3,3):  60 y(3,0,3) - u(0,3,3) >= -0
MCLin5(0,3,3):  -55 y(3,0,3) + v(0,3,3) - u(0,3,3) >= -55
MCLin6(3,0,3):  u(3,0,3) >= -0
MCLin7(3,0,3):  -66 y(0,3,3) - u(3,0,3) <= -0
MCLin8(3,0,3):  49 y(0,3,3) + v(3,0,3) - u(3,0,3) <= 49
MCLin9(3,0,3):  49 y(0,3,3) - u(3,0,3) >= -0
MCLin10(3,0,3):  -66 y(0,3,3) + v(3,0,3) - u(3,0,3) >= -66
MCLinV(1,2,0):  x(1,0) - v(1,2,0) - x(2,0) = 10
MCLinV(2,1,0):  - x(1,0) - v(2,1,0) + x(2,0) = 2
MCLin1(1,2,0):  u(1,2,0) >= -0
MCLin2(1,2,0):  -66 y(2,1,0) - u(1,2,0) <= -0
MCLin3(1,2,0):  32 y(2,1,0) + v(1,2,0) - u(1,2,0) <= 32
MCLin4(1,2,0):  32 y(2,1,0) - u(1,2,0) >= -0
MCLin5(1,2,0):  -66 y(2,1,0) + v(1,2,0) - u(1,2,0) >= -66
MCLin6(2,1,0):  u(2,1,0) >= -0
MCLin7(2,1,0):  -44 y(1,2,0) - u(2,1,0) <= -0
MCLin8(2,1,0):  54 y(1,2,0) + v(2,1,0) - u(2,1,0) <= 54
MCLin9(2,1,0):  54 y(1,2,0) - u(2,1,0) >= -0
MCLin10(2,1,0):  -44 y(1,2,0) + v(2,1,0) - u(2,1,0) >= -44
MCLinV(1,2,1):  x(1,1) - v(1,2,1) - x(2,1) = 10
MCLinV(2,1,1):  - x(1,1) - v(2,1,1) + x(2,1) = 1
MCLin1(1,2,1):  u(1,2,1) >= -0
MCLin2(1,2,1):  -43 y(2,1,1) - u(1,2,1) <= -0
MCLin3(1,2,1):  55 y(2,1,1) + v(1,2,1) - u(1,2,1) <= 55
MCLin4(1,2,1):  55 y(2,1,1) - u(1,2,1) >= -0
MCLin5(1,2,1):  -43 y(2,1,1) + v(1,2,1) - u(1,2,1) >= -43
MCLin6(2,1,1):  u(2,1,1) >= -0
MCLin7(2,1,1):  -66 y(1,2,1) - u(2,1,1) <= -0
MCLin8(2,1,1):  32 y(1,2,1) + v(2,1,1) - u(2,1,1) <= 32
MCLin9(2,1,1):  32 y(1,2,1) - u(2,1,1) >= -0
MCLin10(2,1,1):  -66 y(1,2,1) + v(2,1,1) - u(2,1,1) >= -66
MCLinV(1,2,2):  x(1,2) - v(1,2,2) - x(2,2) = 10
MCLinV(2,1,2):  - x(1,2) - v(2,1,2) + x(2,2) = 1
MCLin1(1,2,2):  u(1,2,2) >= -0
MCLin2(1,2,2):  -54 y(2,1,2) - u(1,2,2) <= -0
MCLin3(1,2,2):  44 y(2,1,2) + v(1,2,2) - u(1,2,2) <= 44
MCLin4(1,2,2):  44 y(2,1,2) - u(1,2,2) >= -0
MCLin5(1,2,2):  -54 y(2,1,2) + v(1,2,2) - u(1,2,2) >= -54
MCLin6(2,1,2):  u(2,1,2) >= -0
MCLin7(2,1,2):  -55 y(1,2,2) - u(2,1,2) <= -0
MCLin8(2,1,2):  43 y(1,2,2) + v(2,1,2) - u(2,1,2) <= 43
MCLin9(2,1,2):  43 y(1,2,2) - u(2,1,2) >= -0
MCLin10(2,1,2):  -55 y(1,2,2) + v(2,1,2) - u(2,1,2) >= -55
MCLinV(1,2,3):  x(1,3) - v(1,2,3) - x(2,3) = 5
MCLinV(2,1,3):  - x(1,3) - v(2,1,3) + x(2,3) = 5
MCLin1(1,2,3):  u(1,2,3) >= -0
MCLin2(1,2,3):  -67 y(2,1,3) - u(1,2,3) <= -0
MCLin3(1,2,3):  31 y(2,1,3) + v(1,2,3) - u(1,2,3) <= 31
MCLin4(1,2,3):  31 y(2,1,3) - u(1,2,3) >= -0
MCLin5(1,2,3):  -67 y(2,1,3) + v(1,2,3) - u(1,2,3) >= -67
MCLin6(2,1,3):  u(2,1,3) >= -0
MCLin7(2,1,3):  -41 y(1,2,3) - u(2,1,3) <= -0
MCLin8(2,1,3):  57 y(1,2,3) + v(2,1,3) - u(2,1,3) <= 57
MCLin9(2,1,3):  57 y(1,2,3) - u(2,1,3) >= -0
MCLin10(2,1,3):  -41 y(1,2,3) + v(2,1,3) - u(2,1,3) >= -41
MCLinV(1,3,0):  x(1,0) - v(1,3,0) - x(3,0) = 4
MCLinV(3,1,0):  - x(1,0) - v(3,1,0) + x(3,0) = 2
MCLin1(1,3,0):  u(1,3,0) >= -0
MCLin2(1,3,0):  -71 y(3,1,0) - u(1,3,0) <= -0
MCLin3(1,3,0):  55 y(3,1,0) + v(1,3,0) - u(1,3,0) <= 55
MCLin4(1,3,0):  55 y(3,1,0) - u(1,3,0) >= -0
MCLin5(1,3,0):  -71 y(3,1,0) + v(1,3,0) - u(1,3,0) >= -71
MCLin6(3,1,0):  u(3,1,0) >= -0
MCLin7(3,1,0):  -61 y(1,3,0) - u(3,1,0) <= -0
MCLin8(3,1,0):  65 y(1,3,0) + v(3,1,0) - u(3,1,0) <= 65
MCLin9(3,1,0):  65 y(1,3,0) - u(3,1,0) >= -0
MCLin10(3,1,0):  -61 y(1,3,0) + v(3,1,0) - u(3,1,0) >= -61
MCLinV(1,3,1):  x(1,1) - v(1,3,1) - x(3,1) = 1
MCLinV(3,1,1):  - x(1,1) - v(3,1,1) + x(3,1) = 1
MCLin1(1,3,1):  u(1,3,1) >= -0
MCLin2(1,3,1):  -62 y(3,1,1) - u(1,3,1) <= -0
MCLin3(1,3,1):  64 y(3,1,1) + v(1,3,1) - u(1,3,1) <= 64
MCLin4(1,3,1):  64 y(3,1,1) - u(1,3,1) >= -0
MCLin5(1,3,1):  -62 y(3,1,1) + v(1,3,1) - u(1,3,1) >= -62
MCLin6(3,1,1):  u(3,1,1) >= -0
MCLin7(3,1,1):  -66 y(1,3,1) - u(3,1,1) <= -0
MCLin8(3,1,1):  60 y(1,3,1) + v(3,1,1) - u(3,1,1) <= 60
MCLin9(3,1,1):  60 y(1,3,1) - u(3,1,1) >= -0
MCLin10(3,1,1):  -66 y(1,3,1) + v(3,1,1) - u(3,1,1) >= -66
MCLinV(1,3,2):  x(1,2) - v(1,3,2) - x(3,2) = 1
MCLinV(3,1,2):  - x(1,2) - v(3,1,2) + x(3,2) = 1
MCLin1(1,3,2):  u(1,3,2) >= -0
MCLin2(1,3,2):  -64 y(3,1,2) - u(1,3,2) <= -0
MCLin3(1,3,2):  62 y(3,1,2) + v(1,3,2) - u(1,3,2) <= 62
MCLin4(1,3,2):  62 y(3,1,2) - u(1,3,2) >= -0
MCLin5(1,3,2):  -64 y(3,1,2) + v(1,3,2) - u(1,3,2) >= -64
MCLin6(3,1,2):  u(3,1,2) >= -0
MCLin7(3,1,2):  -64 y(1,3,2) - u(3,1,2) <= -0
MCLin8(3,1,2):  62 y(1,3,2) + v(3,1,2) - u(3,1,2) <= 62
MCLin9(3,1,2):  62 y(1,3,2) - u(3,1,2) >= -0
MCLin10(3,1,2):  -64 y(1,3,2) + v(3,1,2) - u(3,1,2) >= -64
MCLinV(1,3,3):  x(1,3) - v(1,3,3) - x(3,3) = 1
MCLinV(3,1,3):  - x(1,3) - v(3,1,3) + x(3,3) = 5
MCLin1(1,3,3):  u(1,3,3) >= -0
MCLin2(1,3,3):  -63 y(3,1,3) - u(1,3,3) <= -0
MCLin3(1,3,3):  63 y(3,1,3) + v(1,3,3) - u(1,3,3) <= 63
MCLin4(1,3,3):  63 y(3,1,3) - u(1,3,3) >= -0
MCLin5(1,3,3):  -63 y(3,1,3) + v(1,3,3) - u(1,3,3) >= -63
MCLin6(3,1,3):  u(3,1,3) >= -0
MCLin7(3,1,3):  -69 y(1,3,3) - u(3,1,3) <= -0
MCLin8(3,1,3):  57 y(1,3,3) + v(3,1,3) - u(3,1,3) <= 57
MCLin9(3,1,3):  57 y(1,3,3) - u(3,1,3) >= -0
MCLin10(3,1,3):  -69 y(1,3,3) + v(3,1,3) - u(3,1,3) >= -69
MCLinV(2,3,0):  x(2,0) - v(2,3,0) - x(3,0) = 4
MCLinV(3,2,0):  - x(2,0) - v(3,2,0) + x(3,0) = 10
MCLin1(2,3,0):  u(2,3,0) >= -0
MCLin2(2,3,0):  -51 y(3,2,0) - u(2,3,0) <= -0
MCLin3(2,3,0):  49 y(3,2,0) + v(2,3,0) - u(2,3,0) <= 49
MCLin4(2,3,0):  49 y(3,2,0) - u(2,3,0) >= -0
MCLin5(2,3,0):  -51 y(3,2,0) + v(2,3,0) - u(2,3,0) >= -51
MCLin6(3,2,0):  u(3,2,0) >= -0
MCLin7(3,2,0):  -63 y(2,3,0) - u(3,2,0) <= -0
MCLin8(3,2,0):  37 y(2,3,0) + v(3,2,0) - u(3,2,0) <= 37
MCLin9(3,2,0):  37 y(2,3,0) - u(3,2,0) >= -0
MCLin10(3,2,0):  -63 y(2,3,0) + v(3,2,0) - u(3,2,0) >= -63
MCLinV(2,3,1):  x(2,1) - v(2,3,1) - x(3,1) = 1
MCLinV(3,2,1):  - x(2,1) - v(3,2,1) + x(3,1) = 10
MCLin1(2,3,1):  u(2,3,1) >= -0
MCLin2(2,3,1):  -65 y(3,2,1) - u(2,3,1) <= -0
MCLin3(2,3,1):  35 y(3,2,1) + v(2,3,1) - u(2,3,1) <= 35
MCLin4(2,3,1):  35 y(3,2,1) - u(2,3,1) >= -0
MCLin5(2,3,1):  -65 y(3,2,1) + v(2,3,1) - u(2,3,1) >= -65
MCLin6(3,2,1):  u(3,2,1) >= -0
MCLin7(3,2,1):  -46 y(2,3,1) - u(3,2,1) <= -0
MCLin8(3,2,1):  54 y(2,3,1) + v(3,2,1) - u(3,2,1) <= 54
MCLin9(3,2,1):  54 y(2,3,1) - u(3,2,1) >= -0
MCLin10(3,2,1):  -46 y(2,3,1) + v(3,2,1) - u(3,2,1) >= -46
MCLinV(2,3,2):  x(2,2) - v(2,3,2) - x(3,2) = 1
MCLinV(3,2,2):  - x(2,2) - v(3,2,2) + x(3,2) = 10
MCLin1(2,3,2):  u(2,3,2) >= -0
MCLin2(2,3,2):  -56 y(3,2,2) - u(2,3,2) <= -0
MCLin3(2,3,2):  44 y(3,2,2) + v(2,3,2) - u(2,3,2) <= 44
MCLin4(2,3,2):  44 y(3,2,2) - u(2,3,2) >= -0
MCLin5(2,3,2):  -56 y(3,2,2) + v(2,3,2) - u(2,3,2) >= -56
MCLin6(3,2,2):  u(3,2,2) >= -0
MCLin7(3,2,2):  -55 y(2,3,2) - u(3,2,2) <= -0
MCLin8(3,2,2):  45 y(2,3,2) + v(3,2,2) - u(3,2,2) <= 45
MCLin9(3,2,2):  45 y(2,3,2) - u(3,2,2) >= -0
MCLin10(3,2,2):  -55 y(2,3,2) + v(3,2,2) - u(3,2,2) >= -55
MCLinV(2,3,3):  x(2,3) - v(2,3,3) - x(3,3) = 1
MCLinV(3,2,3):  - x(2,3) - v(3,2,3) + x(3,3) = 5
MCLin1(2,3,3):  u(2,3,3) >= -0
MCLin2(2,3,3):  -37 y(3,2,3) - u(2,3,3) <= -0
MCLin3(2,3,3):  63 y(3,2,3) + v(2,3,3) - u(2,3,3) <= 63
MCLin4(2,3,3):  63 y(3,2,3) - u(2,3,3) >= -0
MCLin5(2,3,3):  -37 y(3,2,3) + v(2,3,3) - u(2,3,3) >= -37
MCLin6(3,2,3):  u(3,2,3) >= -0
MCLin7(3,2,3):  -69 y(2,3,3) - u(3,2,3) <= -0
MCLin8(3,2,3):  31 y(2,3,3) + v(3,2,3) - u(3,2,3) <= 31
MCLin9(3,2,3):  31 y(2,3,3) - u(3,2,3) >= -0
MCLin10(3,2,3):  -69 y(2,3,3) + v(3,2,3) - u(3,2,3) >= -69
makespan(0):  C - x(0,2) >= 3
makespan(1):  C - x(1,3) >= 5
makespan(2):  C - x(2,3) >= 5
makespan(3):  C - x(3,0) >= 4
Bounds
 0 <= C <= 71
 9 <= x(0,0) <= 60
 0 <= y(0,1,0) <= 1
 0 <= y(1,0,0) <= 1
 -55 <= v(0,1,0) <= 58
 -63 <= v(1,0,0) <= 50
 -710 <= u(0,1,0)
 -710 <= u(1,0,0)
 0 <= y(0,2,0) <= 1
 0 <= y(2,0,0) <= 1
 -57 <= v(0,2,0) <= 30
 -43 <= v(2,0,0) <= 44
 -710 <= u(0,2,0)
 -710 <= u(2,0,0)
 0 <= y(0,3,0) <= 1
 0 <= y(3,0,0) <= 1
 -62 <= v(0,3,0) <= 53
 -60 <= v(3,0,0) <= 55
 -710 <= u(0,3,0)
 -710 <= u(3,0,0)
 0 <= x(1,0) <= 62
 0 <= y(1,2,0) <= 1
 0 <= y(2,1,0) <= 1
 -66 <= v(1,2,0) <= 32
 -44 <= v(2,1,0) <= 54
 -710 <= u(1,2,0)
 -710 <= u(2,1,0)
 0 <= y(1,3,0) <= 1
 0 <= y(3,1,0) <= 1
 -71 <= v(1,3,0) <= 55
 -61 <= v(3,1,0) <= 65
 -710 <= u(1,3,0)
 -710 <= u(3,1,0)
 20 <= x(2,0) <= 56
 0 <= y(2,3,0) <= 1
 0 <= y(3,2,0) <= 1
 -51 <= v(2,3,0) <= 49
 -63 <= v(3,2,0) <= 37
 -710 <= u(2,3,0)
 -710 <= u(3,2,0)
 3 <= x(3,0) <= 67
 0 <= x(0,1) <= 51
 0 <= y(0,1,1) <= 1
 0 <= y(1,0,1) <= 1
 -66 <= v(0,1,1) <= 47
 -57 <= v(1,0,1) <= 56
 -710 <= u(0,1,1)
 -710 <= u(1,0,1)
 0 <= y(0,2,1) <= 1
 0 <= y(2,0,1) <= 1
 -46 <= v(0,2,1) <= 41
 -60 <= v(2,0,1) <= 27
 -710 <= u(0,2,1)
 -710 <= u(2,0,1)
 0 <= y(0,3,1) <= 1
 0 <= y(3,0,1) <= 1
 -65 <= v(0,3,1) <= 50
 -60 <= v(3,0,1) <= 55
 -710 <= u(0,3,1)
 -710 <= u(3,0,1)
 3 <= x(1,1) <= 65
 0 <= y(1,2,1) <= 1
 0 <= y(2,1,1) <= 1
 -43 <= v(1,2,1) <= 55
 -66 <= v(2,1,1) <= 32
 -710 <= u(1,2,1)
 -710 <= u(2,1,1)
 0 <= y(1,3,1) <= 1
 0 <= y(3,1,1) <= 1
 -62 <= v(1,3,1) <= 64
 -66 <= v(3,1,1) <= 60
 -710 <= u(1,3,1)
 -710 <= u(3,1,1)
 0 <= x(2,1) <= 36
 0 <= y(2,3,1) <= 1
 0 <= y(3,2,1) <= 1
 -65 <= v(2,3,1) <= 35
 -46 <= v(3,2,1) <= 54
 -710 <= u(2,3,1)
 -710 <= u(3,2,1)
 0 <= x(3,1) <= 64
 17 <= x(0,2) <= 68
 0 <= y(0,1,2) <= 1
 0 <= y(1,0,2) <= 1
 -48 <= v(0,1,2) <= 65
 -69 <= v(1,0,2) <= 44
 -710 <= u(0,1,2)
 -710 <= u(1,0,2)
 0 <= y(0,2,2) <= 1
 0 <= y(2,0,2) <= 1
 -39 <= v(0,2,2) <= 48
 -61 <= v(2,0,2) <= 26
 -710 <= u(0,2,2)
 -710 <= u(2,0,2)
 0 <= y(0,3,2) <= 1
 0 <= y(3,0,2) <= 1
 -49 <= v(0,3,2) <= 66
 -70 <= v(3,0,2) <= 45
 -710 <= u(0,3,2)
 -710 <= u(3,0,2)
 2 <= x(1,2) <= 64
 0 <= y(1,2,2) <= 1
 0 <= y(2,1,2) <= 1
 -54 <= v(1,2,2) <= 44
 -55 <= v(2,1,2) <= 43
 -710 <= u(1,2,2)
 -710 <= u(2,1,2)
 0 <= y(1,3,2) <= 1
 0 <= y(3,1,2) <= 1
 -64 <= v(1,3,2) <= 62
 -64 <= v(3,1,2) <= 62
 -710 <= u(1,3,2)
 -710 <= u(3,1,2)
 10 <= x(2,2) <= 46
 0 <= y(2,3,2) <= 1
 0 <= y(3,2,2) <= 1
 -56 <= v(2,3,2) <= 44
 -55 <= v(3,2,2) <= 45
 -710 <= u(2,3,2)
 -710 <= u(3,2,2)
 1 <= x(3,2) <= 65
 12 <= x(0,3) <= 63
 0 <= y(0,1,3) <= 1
 0 <= y(1,0,3) <= 1
 -59 <= v(0,1,3) <= 54
 -64 <= v(1,0,3) <= 49
 -710 <= u(0,1,3)
 -710 <= u(1,0,3)
 0 <= y(0,2,3) <= 1
 0 <= y(2,0,3) <= 1
 -59 <= v(0,2,3) <= 28
 -38 <= v(2,0,3) <= 49
 -710 <= u(0,2,3)
 -710 <= u(2,0,3)
 0 <= y(0,3,3) <= 1
 0 <= y(3,0,3) <= 1
 -55 <= v(0,3,3) <= 60
 -66 <= v(3,0,3) <= 49
 -710 <= u(0,3,3)
 -710 <= u(3,0,3)
 4 <= x(1,3) <= 66
 0 <= y(1,2,3) <= 1
 0 <= y(2,1,3) <= 1
 -67 <= v(1,2,3) <= 31
 -41 <= v(2,1,3) <= 57
 -710 <= u(1,2,3)
 -710 <= u(2,1,3)
 0 <= y(1,3,3) <= 1
 0 <= y(3,1,3) <= 1
 -63 <= v(1,3,3) <= 63
 -69 <= v(3,1,3) <= 57
 -710 <= u(1,3,3)
 -710 <= u(3,1,3)
 30 <= x(2,3) <= 66
 0 <= y(2,3,3) <= 1
 0 <= y(3,2,3) <= 1
 -37 <= v(2,3,3) <= 63
 -69 <= v(3,2,3) <= 31
 -710 <= u(2,3,3)
 -710 <= u(3,2,3)
 2 <= x(3,3) <= 66
Integers
C x(0,0) y(0,1,0) y(1,0,0) v(0,1,0) v(1,0,0) u(0,1,0) u(1,0,0) y(0,2,0) y(2,0,0) 
v(0,2,0) v(2,0,0) u(0,2,0) u(2,0,0) y(0,3,0) y(3,0,0) v(0,3,0) v(3,0,0) u(0,3,0) u(3,0,0) 
x(1,0) y(1,2,0) y(2,1,0) v(1,2,0) v(2,1,0) u(1,2,0) u(2,1,0) y(1,3,0) y(3,1,0) v(1,3,0) 
v(3,1,0) u(1,3,0) u(3,1,0) x(2,0) y(2,3,0) y(3,2,0) v(2,3,0) v(3,2,0) u(2,3,0) u(3,2,0) 
x(3,0) x(0,1) y(0,1,1) y(1,0,1) v(0,1,1) v(1,0,1) u(0,1,1) u(1,0,1) y(0,2,1) y(2,0,1) 
v(0,2,1) v(2,0,1) u(0,2,1) u(2,0,1) y(0,3,1) y(3,0,1) v(0,3,1) v(3,0,1) u(0,3,1) u(3,0,1) 
x(1,1) y(1,2,1) y(2,1,1) v(1,2,1) v(2,1,1) u(1,2,1) u(2,1,1) y(1,3,1) y(3,1,1) v(1,3,1) 
v(3,1,1) u(1,3,1) u(3,1,1) x(2,1) y(2,3,1) y(3,2,1) v(2,3,1) v(3,2,1) u(2,3,1) u(3,2,1) 
x(3,1) x(0,2) y(0,1,2) y(1,0,2) v(0,1,2) v(1,0,2) u(0,1,2) u(1,0,2) y(0,2,2) y(2,0,2) 
v(0,2,2) v(2,0,2) u(0,2,2) u(2,0,2) y(0,3,2) y(3,0,2) v(0,3,2) v(3,0,2) u(0,3,2) u(3,0,2) 
x(1,2) y(1,2,2) y(2,1,2) v(1,2,2) v(2,1,2) u(1,2,2) u(2,1,2) y(1,3,2) y(3,1,2) v(1,3,2) 
v(3,1,2) u(1,3,2) u(3,1,2) x(2,2) y(2,3,2) y(3,2,2) v(2,3,2) v(3,2,2) u(2,3,2) u(3,2,2) 
x(3,2) x(0,3) y(0,1,3) y(1,0,3) v(0,1,3) v(1,0,3) u(0,1,3) u(1,0,3) y(0,2,3) y(2,0,3) 
v(0,2,3) v(2,0,3) u(0,2,3) u(2,0,3) y(0,3,3) y(3,0,3) v(0,3,3) v(3,0,3) u(0,3,3) u(3,0,3) 
x(1,3) y(1,2,3) y(2,1,3) v(1,2,3) v(2,1,3) u(1,2,3) u(2,1,3) y(1,3,3) y(3,1,3) v(1,3,3) 
v(3,1,3) u(1,3,3) u(3,1,3) x(2,3) y(2,3,3) y(3,2,3) v(2,3,3) v(3,2,3) u(2,3,3) u(3,2,3) 
x(3,3) 
End
